nNurses = 55;
nHours = 40;
minHours = 3;
maxHours = 13;
maxConsec = 10;
maxPresence = 8;
demand = [15, 18, 16, 14, 9, 14, 12, 13, 8, 10, 7, 12, 14, 10, 10, 7, 7, 6, 6, 10, 14, 14, 12, 12, 14, 11, 15, 14, 18, 15, 18, 15, 11, 13, 9, 12, 7, 8, 13, 12];
